50
10146

280 734
169 270
444 975
894 759
506 628
981 259
389 330
205 32
723 552
321 157
949 190
238 591
746 569
814 583
810 37
624 643
159 216
90 291
31 115
102 327
454 591
874 510
240 74
500 22
754 91
969 672
970 81
656 793
212 712
754 459
634 11
180 74
599 524
656 291
821 166
858 468
568 344
415 14
441 402
936 371
187 233
57 200
895 993
982 226
788 321
324 740
979 248
597 818
502 545
625 532
